DATASET = "thpack6";
INSTANCE = "043";

WIDTH = 233;
HEIGHT = 220;
LENGTH = 587;

NO_OF_SHAPES = 15;
size = [|
  82,80,71 |
  66,37,27 |
  77,76,31 |
  100,56,38 |
  93,86,67 |
  89,76,30 |
  98,90,67 |
  87,52,42 |
  53,42,35 |
  116,53,36 |
  85,79,46 |
  106,91,24 |
  112,84,46 |
  89,56,47 |
  62,51,39 |
|];

verticality = [|
  1,1,1 |
  0,1,1 |
  0,0,1 |
  0,1,1 |
  1,1,1 |
  0,0,1 |
  1,1,1 |
  0,1,1 |
  1,1,1 |
  0,1,1 |
  1,1,1 |
  0,0,1 |
  0,1,1 |
  1,1,1 |
  1,1,1 |
|];

box_count = [
  9,
  6,
  3,
  4,
  5,
  7,
  8,
  6,
  5,
  12,
  9,
  10,
  6,
  10,
  8,
];
